NAME : cgl_60.11601.tour
COMMENT : Length = 11601
COMMENT : Found by LKH-3 [Keld Helsgaun] Fri Nov  8 19:20:30 2024
TYPE : TOUR
DIMENSION : 60
TOUR_SECTION
36
39
37
41
28
24
22
43
21
44
45
46
48
56
53
51
52
50
49
55
54
47
58
57
59
60
1
2
3
4
5
6
7
11
10
9
8
12
13
14
15
16
17
18
19
20
25
27
26
23
42
29
30
34
31
33
35
38
32
40
-1
EOF
